%datafile

NAceitesVegetales = 6;
NAceitesNoVegetales = 5;

Meses = 8;

K = 7;

T = 75;

Precios = [| 110, 120, 130, 110, 115, 120, 90, 120, 75, 130, 140
           | 130, 130, 110, 90, 115, 130, 110, 90, 75, 110, 120,
           | 110, 140, 130, 100, 95, 80, 100, 90, 110, 115, 140,
           | 120, 110, 120, 120, 125, 90, 110, 100, 115, 160, 140,
           | 100, 120, 150, 110, 105, 101, 86, 126, 81, 85, 119,
           | 110, 115, 120, 150, 135, 121, 96, 136, 181, 125, 129,
           | 110, 140, 120, 130, 125, 70, 80, 126, 85, 100, 130,
           | 120, 150, 120, 90, 80, 115, 90, 114, 90, 129, 111 |];

PreciosMensual = [150, 120, 130, 180, 20, 160, 90, 110];

MAXV = 400;
MAXN = 380;

MCAP = 1000;
MCAPR = 75;

CA = 3;
CAR = 5;

MinD = 3.5;
MaxD = 4.3;

Durezas = [8.8, 6.1, 2.0, 4.2, 5.0, 3.5, 6.0, 3.8, 1.4, 9.0, 5.4];

RestanteFinal = [11, 3, 7, 9, 12, 7, 9, 5, 14, 34, 2];

AceitesAUsar = [| false, false, false, false, false, false, false, false, false, true, true
                | false, false, false, false, false, false, false, false, false, true, true
                | false, false, false, false, false, false, false, false, false, false, false
                | false, false, false, false, true, true, false, false, false, false, false
                | false, false, false, false, false, false, false, false, false, false, false
                | false, false, true, false, false, false, false, false, true, false, false
                | false, false, false, false, false, false, false, false, false, false, false
                | false, true, false, false, false, false, false, false, false, false, true
                | false, false, false, false, false, true, false, true, false, false, false
                | false, false, false, false, true, false, false, false, false, false, false
                | false, true, false, false, false, false, false, false, false, true, false |];

MinB = 150000;